p cnf 85 290
-4 -2 0
-4 -3 0
2 3 4 0
-1 4 -5 0
1 -4 -5 0
-1 -4 5 0
1 4 5 0
-6 1 -7 0
6 -1 -7 0
-6 -1 7 0
6 1 7 0
-7 8 -9 0
7 -8 -9 0
-7 -8 9 0
7 8 9 0
-9 -10 -11 0
9 10 -11 0
-9 10 11 0
9 -10 11 0
5 11 -12 0
-5 -11 -12 0
5 -11 12 0
-5 11 12 0
-14 10 0
-14 13 0
-10 -13 14 0
-15 14 0
-15 -3 0
-14 3 15 0
16 15 0
16 4 0
-15 -4 -16 0
-17 -8 0
-17 -6 0
8 6 17 0
-17 18 -19 0
17 -18 -19 0
-17 -18 19 0
17 18 19 0
-20 -16 0
-20 19 0
16 -19 20 0
12 20 -21 0
-12 -20 -21 0
12 -20 21 0
-12 20 21 0
-23 8 0
-23 22 0
-8 -22 23 0
-23 9 -24 0
23 -9 -24 0
-23 -9 24 0
23 9 24 0
-1 -24 -25 0
1 24 -25 0
-1 24 25 0
1 -24 25 0
-8 -10 -26 0
8 10 -26 0
-8 10 26 0
8 -10 26 0
-27 -8 0
-27 -3 0
8 3 27 0
-26 27 -28 0
26 -27 -28 0
-26 -27 28 0
26 27 28 0
-29 28 0
-29 14 0
-28 -14 29 0
31 1 0
31 -30 0
-1 30 -31 0
29 31 -32 0
-29 -31 -32 0
29 -31 32 0
-29 31 32 0
33 3 0
33 -9 0
-3 9 -33 0
1 -33 -34 0
-1 33 -34 0
1 33 34 0
-1 -33 34 0
-36 14 0
-36 35 0
-14 -35 36 0
-34 36 -37 0
34 -36 -37 0
-34 -36 37 0
34 36 37 0
38 26 0
38 30 0
-26 -30 -38 0
-39 37 0
-39 38 0
-37 -38 39 0
32 -39 -40 0
-32 39 -40 0
32 39 40 0
-32 -39 40 0
25 40 -41 0
-25 -40 -41 0
25 -40 41 0
-25 40 41 0
-42 -10 0
-42 -6 0
10 6 42 0
-43 -42 0
-43 34 0
42 -34 43 0
-44 43 0
-44 23 0
-43 -23 44 0
-30 10 -45 0
30 -10 -45 0
-30 -10 45 0
30 10 45 0
-44 45 -46 0
44 -45 -46 0
-44 -45 46 0
44 45 46 0
-47 41 0
-47 46 0
-41 -46 47 0
-48 21 0
-48 47 0
-21 -47 48 0
49 15 0
49 3 0
-15 -3 -49 0
50 -10 -51 0
-50 10 -51 0
50 10 51 0
-50 -10 51 0
52 -49 0
52 51 0
49 -51 -52 0
53 4 0
53 -14 0
-4 14 -53 0
54 -53 0
54 7 0
53 -7 -54 0
-55 -54 0
-55 -38 0
54 38 55 0
-56 52 0
-56 55 0
-52 -55 56 0
57 -27 0
57 -36 0
27 36 -57 0
-58 -4 0
-58 35 0
4 -35 58 0
-59 -57 0
-59 -58 0
57 58 59 0
-3 -6 -60 0
3 6 -60 0
-3 6 60 0
3 -6 60 0
-62 60 0
-62 -61 0
-60 61 62 0
60 -3 -63 0
-60 3 -63 0
60 3 63 0
-60 -3 63 0
22 63 -64 0
-22 -63 -64 0
22 -63 64 0
-22 63 64 0
62 64 -65 0
-62 -64 -65 0
62 -64 65 0
-62 64 65 0
66 29 0
66 17 0
-29 -17 -66 0
-67 1 0
-67 61 0
-1 -61 67 0
-66 67 -68 0
66 -67 -68 0
-66 -67 68 0
66 67 68 0
-69 65 0
-69 -68 0
-65 68 69 0
70 -59 0
70 69 0
59 -69 -70 0
-71 56 0
-71 70 0
-56 -70 71 0
72 -24 0
72 -6 0
24 6 -72 0
-23 -6 -74 0
23 6 -74 0
-23 6 74 0
23 -6 74 0
-75 -73 0
-75 74 0
73 -74 75 0
72 75 -76 0
-72 -75 -76 0
72 -75 76 0
-72 75 76 0
-77 13 0
-77 -43 0
-13 43 77 0
78 -9 0
78 -17 0
9 17 -78 0
-79 -77 0
-79 78 0
77 -78 79 0
-34 2 -80 0
34 -2 -80 0
-34 -2 80 0
34 2 80 0
-81 -17 0
-81 -80 0
17 80 81 0
82 -79 0
82 -81 0
79 81 -82 0
83 76 0
83 -82 0
-76 82 -83 0
71 83 -84 0
-71 -83 -84 0
71 -83 84 0
-71 83 84 0
85 -48 0
85 84 0
48 -84 -85 0
40 59 31 72 -61 0
21 -52 0
-27 -66 56 0
51 -10 -59 25 77 -75 0
-61 29 -62 11 0
-34 -20 51 -37 -6 0
36 10 52 42 2 0
-71 -4 -36 -77 -11 0
-58 76 13 -75 0
-22 13 -58 -76 72 0
2 77 -11 71 16 0
9 24 -3 -82 -39 0
-37 -48 47 -85 -32 0
4 7 -25 78 0
68 -72 12 20 64 0
-51 57 -49 64 0
-57 4 69 49 0
-3 -42 40 -70 4 0
-65 58 11 -61 0
-39 -38 25 0
51 -9 -41 13 0
22 6 -70 41 18 -31 0
43 -14 63 -11 0
44 -9 27 -40 -77 43 0
-32 5 78 -28 0
48 32 44 -18 -42 16 0
4 -5 0
69 -46 53 -23 0
-79 -16 13 0
17 72 -63 0
-60 61 -47 5 -74 79 0
-11 3 -33 0
-8 -12 -51 0
76 19 58 30 -40 0
38 17 11 -45 0
-32 4 -60 0
68 5 -84 -62 53 -34 0
-45 70 -47 -71 -73 15 0
32 -42 39 55 -20 -84 0
-36 78 -77 0
30 85 0
-10 79 0
32 42 29 21 0
-43 -48 -52 -20 0
-47 -27 -44 -33 0
16 54 0
85 18 -56 0
26 11 -30 0
85 0
